<number of tasks>
100

<cycle time>
1000

<order strength>
0.896


<task times>
1 517
2 468
3 523
4 502
5 775
6 469
7 686
8 684
9 360
10 356
11 530
12 585
13 438
14 574
15 414
16 528
17 499
18 618
19 582
20 435
21 631
22 578
23 431
24 448
25 492
26 632
27 462
28 240
29 550
30 727
31 430
32 633
33 574
34 666
35 479
36 422
37 647
38 643
39 525
40 744
41 607
42 572
43 748
44 676
45 678
46 462
47 555
48 569
49 627
50 638
51 647
52 657
53 423
54 514
55 541
56 531
57 711
58 391
59 551
60 618
61 502
62 385
63 376
64 565
65 450
66 363
67 447
68 419
69 629
70 358
71 632
72 320
73 529
74 484
75 403
76 815
77 494
78 510
79 675
80 518
81 698
82 477
83 565
84 508
85 351
86 448
87 555
88 618
89 662
90 556
91 517
92 612
93 437
94 387
95 588
96 452
97 519
98 425
99 784
100 515

<precedence relations>
1,5
1,6
2,5
2,6
3,5
3,6
4,5
4,6
5,7
5,8
5,9
5,10
6,7
6,8
6,9
6,10
7,11
7,12
7,13
8,11
8,12
8,13
9,11
9,12
9,13
10,11
10,12
10,13
11,14
11,15
11,16
11,17
11,18
11,19
12,14
12,15
12,16
12,17
12,18
12,19
13,14
13,15
13,16
13,17
13,18
13,19
14,20
14,21
14,22
14,23
14,24
15,20
15,21
15,22
15,23
15,24
16,20
16,21
16,22
16,23
16,24
17,20
17,21
17,22
17,23
17,24
18,20
18,21
18,22
18,23
18,24
19,20
19,21
19,22
19,23
19,24
20,25
20,26
20,27
20,28
20,29
21,25
21,26
21,27
21,28
21,29
22,25
22,26
22,27
22,28
22,29
23,25
23,26
23,27
23,28
23,29
24,25
24,26
24,27
24,28
24,29
25,30
25,31
25,32
26,41
26,42
27,30
27,31
27,32
28,30
28,31
28,32
29,30
29,31
29,32
30,33
30,34
30,35
31,33
31,34
31,35
32,33
32,35
33,50
33,55
34,36
34,37
35,36
35,37
36,38
36,39
37,38
37,39
38,40
38,41
38,42
39,40
39,41
39,42
40,43
40,44
41,43
41,44
42,43
42,44
43,45
43,46
43,47
44,45
44,46
44,47
45,48
45,49
45,50
45,51
46,48
46,49
46,50
46,51
47,48
47,51
48,62
48,78
49,52
49,53
49,54
49,55
50,52
50,66
50,69
51,89
51,92
52,70
53,58
53,59
53,63
54,56
54,57
54,58
55,56
55,57
55,58
55,59
56,60
56,61
56,63
56,66
57,60
57,61
57,62
58,60
58,61
59,60
59,61
59,62
60,64
60,65
61,76
62,66
62,79
63,64
63,65
64,67
64,68
64,69
64,77
65,67
65,69
65,70
66,72
66,82
66,86
67,74
67,82
67,89
67,90
68,72
68,76
68,83
69,71
70,71
70,72
70,73
71,76
71,84
72,74
72,96
73,74
73,75
73,77
74,80
74,88
76,78
77,78
77,79
78,81
78,82
78,85
78,86
79,83
79,84
80,81
80,98
81,87
82,91
82,98
83,85
83,86
84,85
85,88
86,89
86,90
87,91
88,93
89,93
90,92
90,93
91,93
92,94
92,96
93,95
95,97
95,99
95,100
96,98

<end>
